Route #1: 50 39 27 65 99 36 64 104 60 61 22 83 76 55 56 30
Route #2: 19 41 12 58 63 72 21 75 88 96 95 59 17 31 28 54 68 52
Route #3: 49 40 47 48 57 82 107 94 37 7 35 73 86 10 100 62 8
Route #4: 69 25 103 24 4 101 33 9 102 93 43 2 80 71
Route #5: 3 91 5 46 89 67 45 34 106 42 97 92 20 105 38 108
Route #6: 6 77 11 85 51 98 66 15 53 26 87 84 18 109
Route #7: 79 32 74 78 29 81 44 70 13 23 16 90 1 14
Cost 11166.000000